
Gurobi 9.1.1 (mac64, gurobi_cl) logging started Fri Mar  5 14:32:58 2021

Academic license - for non-commercial use only - expires 2021-04-06
Using license file /Users/agnese/gurobi.lic
Set parameter LogFile to value gurobi.log

Gurobi Optimizer version 9.1.1 build v9.1.1rc0 (mac64)
Copyright (c) 2020, Gurobi Optimization, LLC

Read LP format model from file /Users/agnese/Documents/KTH-Work/GitHub_repositories/KTH-dESA/GLUCOSE/results/FINAL_2060/4.2_2Degree/CO_gurobi/GLUCOSE_4.Final2DEGREE+HPnewlimit+CO.lp
Reading time = 4.36 seconds
cost: 1097455 rows, 1087932 columns, 1788545 nonzeros
Thread count: 2 physical cores, 4 logical processors, using up to 4 threads
Optimize a model with 1097455 rows, 1087932 columns and 1788545 nonzeros
Model fingerprint: 0x9e7a6e6e
Coefficient statistics:
  Matrix range     [2e-08, 4e+11]
  Objective range  [7e-08, 4e+11]
  Bounds range     [0e+00, 0e+00]
  RHS range        [1e-04, 1e+06]
Warning: Model contains large matrix coefficient range
Warning: Model contains large objective coefficients
         Consider reformulating model or setting NumericFocus parameter
         to avoid numerical issues.

Concurrent LP optimizer: dual simplex and barrier
Showing barrier log only...

Presolve removed 1071651 rows and 1069695 columns
Presolve time: 1.46s
Presolved: 25804 rows, 18481 columns, 353565 nonzeros

Ordering time: 0.72s

Barrier statistics:
 AA' NZ     : 1.306e+06
 Factor NZ  : 7.405e+06 (roughly 80 MBytes of memory)
 Factor Ops : 6.444e+09 (less than 1 second per iteration)
 Threads    : 1

                  Objective                Residual
Iter       Primal          Dual         Primal    Dual     Compl     Time
   0   1.33157214e+21 -3.84958619e+17  2.46e+09 2.08e+12  9.26e+16     3s
   1   7.16766537e+20 -5.25544162e+17  2.42e+09 1.98e+12  9.03e+16     4s
   2   7.01651760e+20 -9.19961041e+17  1.81e+09 1.77e+12  7.38e+16     4s
   3   3.23230331e+20 -3.44227207e+18  7.42e+08 5.92e+11  3.59e+16     5s
   4   1.05557141e+20 -4.44721841e+18  2.13e+08 6.99e+10  1.16e+16     6s
   5   6.83010570e+18 -3.67350002e+18  1.35e+07 1.59e-03  8.28e+14     6s
   6   1.68080703e+18 -2.35122701e+18  3.41e+06 1.80e-03  2.28e+14     7s
   7   8.58879532e+17 -1.70026812e+18  1.79e+06 1.65e-03  1.25e+14     7s
   8   3.39894116e+17 -1.04425732e+18  7.21e+05 1.07e-03  5.59e+13     8s
   9   5.53987378e+16 -3.13538725e+17  1.17e+05 1.76e-02  1.18e+13     9s
  10   1.40168612e+16 -7.05882122e+16  2.89e+04 4.22e-03  2.84e+12    10s
  11   4.94452168e+15 -1.64598638e+16  9.96e+03 4.12e-03  8.30e+11    10s
  12   7.66128739e+14 -2.96213410e+15  1.47e+03 9.62e-03  1.33e+11    11s
  13   5.17045858e+14 -1.74827247e+15  1.00e+03 7.92e-03  8.16e+10    11s
  14   1.62921520e+14 -5.07278490e+14  2.89e+02 5.47e-03  2.24e+10    12s
  15   4.25062412e+13 -1.85803954e+14  3.50e+01 1.68e-02  6.39e+09    13s
  16   1.52433358e+13 -9.83664186e+13  5.66e+00 1.50e-02  2.74e+09    14s
  17   2.33067417e+12 -3.22266526e+13  8.24e-01 2.79e-03  7.39e+08    14s
  18   4.07282273e+10 -1.38443235e+12  3.45e-03 1.36e-03  2.91e+07    15s
  19   8.18283022e+09 -1.01416875e+11  4.31e-05 5.55e-04  2.24e+06    16s
  20   2.31373617e+09 -1.62716450e+10  3.49e-06 4.88e-04  3.79e+05    17s
  21   9.78624114e+08 -8.06860130e+08  2.47e-07 4.88e-04  3.64e+04    17s
  22   5.51126024e+08  3.59899286e+08  1.77e-08 2.44e-04  3.90e+03    18s
  23   4.91501805e+08  4.74050901e+08  4.92e-08 2.44e-04  3.56e+02    19s
  24   4.87785373e+08  4.86467501e+08  7.37e-10 4.88e-04  2.69e+01    20s
  25   4.87564376e+08  4.87292205e+08  3.43e-09 2.44e-04  5.56e+00    21s
  26   4.87501175e+08  4.87366595e+08  7.22e-09 2.44e-04  2.75e+00    21s
  27   4.87481381e+08  4.87396453e+08  5.28e-09 2.44e-04  1.73e+00    22s
  28   4.87464936e+08  4.87417908e+08  1.21e-08 2.44e-04  9.60e-01    23s
  29   4.87455015e+08  4.87428363e+08  7.15e-09 2.44e-04  5.44e-01    23s
  30   4.87448791e+08  4.87437332e+08  7.61e-08 4.88e-04  2.34e-01    24s
  31   4.87445714e+08  4.87440612e+08  1.51e-07 2.44e-04  1.04e-01    25s
  32   4.87443897e+08  4.87441390e+08  6.67e-08 2.44e-04  5.13e-02    25s
  33   4.87443129e+08  4.87441977e+08  9.02e-08 2.44e-04  2.36e-02    26s
  34   4.87442795e+08  4.87442219e+08  4.13e-08 2.44e-04  1.18e-02    27s
  35   4.87442525e+08  4.87442446e+08  9.14e-09 4.88e-04  1.67e-03    28s
  36   4.87442502e+08  4.87442464e+08  4.06e-09 4.88e-04  8.02e-04    28s
  37   4.87442487e+08  4.87442475e+08  2.12e-08 2.44e-04  2.61e-04    29s
  38   4.87442483e+08  4.87442480e+08  3.13e-08 2.44e-04  8.22e-05    30s
  39   4.87442482e+08  4.87442482e+08  8.16e-09 4.88e-04  5.38e-06    31s
  40   4.87442482e+08  4.87442482e+08  4.89e-09 2.44e-04  3.82e-07    32s
  41   4.87442482e+08  4.87442482e+08  1.14e-08 2.44e-04  5.35e-08    33s
  42   4.87442482e+08  4.87442482e+08  9.63e-09 2.44e-04  5.17e-09    33s

Barrier solved model in 42 iterations and 33.26 seconds
Optimal objective 4.87442482e+08

Crossover log...

    6421 DPushes remaining with DInf 0.0000000e+00                33s
       0 DPushes remaining with DInf 0.0000000e+00                34s

    4496 PPushes remaining with PInf 3.2917668e-03                34s
       1 PPushes remaining with PInf 1.1177144e-02                34s

  Push phase complete: Pinf 1.1177144e-02, Dinf 9.6365023e+01     34s

Iteration    Objective       Primal Inf.    Dual Inf.      Time
    8115    4.8744248e+08   0.000000e+00   9.636505e+01     34s
Extra simplex iterations after uncrush: 16
    8487    4.8744248e+08   0.000000e+00   0.000000e+00     36s

Solved with barrier
Solved in 8487 iterations and 36.51 seconds
Optimal objective  4.874424817e+08

No IIS available for current model
Wrote result file 'results_gurobi.sol'

